[runlim] version:		1.10
[runlim] time limit:		311040000 seconds
[runlim] real time limit:	600 seconds
[runlim] space limit:		8000 MB
[runlim] argv[0]:		python3
[runlim] argv[1]:		-u
[runlim] argv[2]:		mip.py
[runlim] argv[3]:		graph01
[runlim] start:			Thu Dec 11 23:32:21 2025
[runlim] main pid:		153665
Building MIP model...
Build time: 7.06s
Solving MIP (minimizing number of labels)...
Version identifier: 22.1.1.0 | 2022-11-28 | 9160aff4d
CPXPARAM_Read_DataCheck                          1
Legacy callback                                  i
Tried aggregator 2 times.
MIP Presolve eliminated 72589 rows and 0 columns.
MIP Presolve modified 9783 coefficients.
Aggregator did 3460 substitutions.
Reduced MIP has 9889 rows, 3508 columns, and 75952 nonzeros.
Reduced MIP has 3508 binaries, 0 generals, 0 SOSs, and 0 indicators.
Presolve time = 0.29 sec. (258.04 ticks)
Found incumbent of value 48.000000 after 0.36 sec. (352.92 ticks)
Probing time = 0.01 sec. (3.08 ticks)
Tried aggregator 1 time.
Detecting symmetries...
Reduced MIP has 9889 rows, 3508 columns, and 75952 nonzeros.
Reduced MIP has 3508 binaries, 0 generals, 0 SOSs, and 0 indicators.
Presolve time = 0.05 sec. (66.76 ticks)
Probing time = 0.01 sec. (3.08 ticks)
Clique table members: 9889.
MIP emphasis: balance optimality and feasibility.
MIP search method: dynamic search.
Parallel mode: deterministic, using up to 12 threads.
Root relaxation solution time = 0.40 sec. (351.19 ticks)

        Nodes                                         Cuts/
   Node  Left     Objective  IInf  Best Integer    Best Bound    ItCnt     Gap

*     0+    0                           48.0000        0.0000           100.00%
*     0+    0                           22.0000        0.0000           100.00%
      0     0       18.0000   209       22.0000       18.0000     3185   18.18%

========== NEW INCUMBENT SOLUTION ==========
{1: 414, 2: 652, 3: 268, 4: 30, 5: 484, 6: 722, 7: 170, 8: 408, 9: 170, 10: 408, 11: 254, 12: 16, 13: 16, 14: 254, 15: 268, 16: 30, 17: 296, 18: 58, 19: 254, 20: 16, 21: 16, 22: 254, 23: 408, 24: 170, 25: 30, 26: 268, 27: 366, 28: 128, 29: 652, 30: 414, 31: 128, 32: 366, 33: 414, 34: 652, 35: 484, 36: 722, 37: 722, 38: 484, 39: 268, 40: 30, 41: 128, 42: 366, 43: 484, 44: 722, 45: 128, 46: 366, 47: 722, 48: 484, 49: 484, 50: 722, 51: 100, 52: 338, 53: 722, 54: 484, 55: 380, 56: 142, 57: 254, 58: 16, 59: 554, 60: 792, 61: 722, 62: 484, 63: 254, 64: 16, 65: 722, 66: 484, 67: 380, 68: 142, 69: 366, 70: 128, 71: 414, 72: 652, 73: 170, 74: 408, 75: 338, 76: 100, 77: 484, 78: 722, 79: 254, 80: 16, 81: 128, 82: 366, 83: 484, 84: 722, 85: 484, 86: 722, 87: 16, 88: 254, 89: 16, 90: 254, 91: 100, 92: 338, 93: 652, 94: 414, 95: 142, 96: 380, 97: 408, 98: 170, 99: 414, 100: 652, 101: 792, 102: 554, 103: 16, 104: 254, 105: 296, 106: 58, 107: 128, 108: 366, 109: 722, 110: 484, 111: 484, 112: 722, 113: 100, 114: 338, 115: 16, 116: 254, 117: 128, 118: 366, 119: 16, 120: 254, 121: 142, 122: 380, 123: 408, 124: 170, 125: 254, 126: 16, 127: 58, 128: 296, 129: 128, 130: 366, 131: 484, 132: 722, 133: 100, 134: 338, 135: 170, 136: 408, 137: 366, 138: 128, 139: 484, 140: 722, 141: 30, 142: 268, 143: 652, 144: 414, 145: 100, 146: 338, 147: 484, 148: 722, 149: 268, 150: 30, 151: 100, 152: 338, 153: 722, 154: 484, 155: 484, 156: 722, 157: 338, 158: 100, 159: 128, 160: 366, 161: 268, 162: 30, 163: 722, 164: 484, 165: 296, 166: 58, 167: 484, 168: 722, 169: 296, 170: 58, 171: 722, 172: 484, 173: 128, 174: 366, 175: 554, 176: 792, 177: 484, 178: 722, 179: 338, 180: 100, 181: 554, 182: 792, 183: 30, 184: 268, 185: 414, 186: 652, 187: 722, 188: 484, 189: 484, 190: 722, 191: 652, 192: 414, 193: 240, 194: 478, 195: 128, 196: 366, 197: 722, 198: 484, 199: 722, 200: 484}
Number of labels used: 22
Total time: 7.95 sec
Memory: 151.72 MB
=============================================

========== NEW INCUMBENT SOLUTION ==========
{1: 414, 2: 652, 3: 268, 4: 30, 5: 484, 6: 722, 7: 170, 8: 408, 9: 170, 10: 408, 11: 254, 12: 16, 13: 16, 14: 254, 15: 268, 16: 30, 17: 296, 18: 58, 19: 254, 20: 16, 21: 16, 22: 254, 23: 408, 24: 170, 25: 30, 26: 268, 27: 366, 28: 128, 29: 652, 30: 414, 31: 128, 32: 366, 33: 414, 34: 652, 35: 484, 36: 722, 37: 722, 38: 484, 39: 268, 40: 30, 41: 128, 42: 366, 43: 484, 44: 722, 45: 128, 46: 366, 47: 722, 48: 484, 49: 484, 50: 722, 51: 100, 52: 338, 53: 722, 54: 484, 55: 380, 56: 142, 57: 254, 58: 16, 59: 554, 60: 792, 61: 722, 62: 484, 63: 254, 64: 16, 65: 722, 66: 484, 67: 380, 68: 142, 69: 366, 70: 128, 71: 414, 72: 652, 73: 170, 74: 408, 75: 338, 76: 100, 77: 484, 78: 722, 79: 254, 80: 16, 81: 128, 82: 366, 83: 484, 84: 722, 85: 484, 86: 722, 87: 16, 88: 254, 89: 16, 90: 254, 91: 100, 92: 338, 93: 652, 94: 414, 95: 142, 96: 380, 97: 408, 98: 170, 99: 414, 100: 652, 101: 792, 102: 554, 103: 16, 104: 254, 105: 296, 106: 58, 107: 128, 108: 366, 109: 722, 110: 484, 111: 484, 112: 722, 113: 100, 114: 338, 115: 16, 116: 254, 117: 128, 118: 366, 119: 16, 120: 254, 121: 142, 122: 380, 123: 408, 124: 170, 125: 254, 126: 16, 127: 58, 128: 296, 129: 128, 130: 366, 131: 484, 132: 722, 133: 100, 134: 338, 135: 170, 136: 408, 137: 366, 138: 128, 139: 484, 140: 722, 141: 30, 142: 268, 143: 652, 144: 414, 145: 100, 146: 338, 147: 484, 148: 722, 149: 268, 150: 30, 151: 100, 152: 338, 153: 722, 154: 484, 155: 484, 156: 722, 157: 338, 158: 100, 159: 128, 160: 366, 161: 268, 162: 30, 163: 722, 164: 484, 165: 296, 166: 58, 167: 484, 168: 722, 169: 296, 170: 58, 171: 722, 172: 484, 173: 128, 174: 366, 175: 554, 176: 792, 177: 484, 178: 722, 179: 338, 180: 100, 181: 554, 182: 792, 183: 30, 184: 268, 185: 414, 186: 652, 187: 722, 188: 484, 189: 484, 190: 722, 191: 652, 192: 414, 193: 240, 194: 478, 195: 128, 196: 366, 197: 722, 198: 484, 199: 722, 200: 484}
Number of labels used: 22
Total time: 7.95 sec
Memory: 151.85 MB
=============================================
*     0+    0                           18.0000       18.0000             0.00%
      0     0        cutoff             18.0000       18.0000     3185    0.00%
Elapsed time = 1.13 sec. (1041.47 ticks, tree = 0.01 MB, solutions = 3)

Root node processing (before b&c):
  Real time             =    1.13 sec. (1041.80 ticks)
Parallel b&c, 12 threads:
  Real time             =    0.00 sec. (0.00 ticks)
  Sync time (average)   =    0.00 sec.
  Wait time (average)   =    0.00 sec.
                          ------------
Total (root+branch&cut) =    1.13 sec. (1041.80 ticks)
Solve time: 1.14s
Solution :
{414, 652, 268, 30, 554, 792, 142, 380, 142, 380, 414, 652, 394, 156, 652, 414, 792, 554, 72, 310, 72, 310, 380, 142, 72, 310, 694, 456, 694, 456, 142, 380, 86, 324, 394, 156, 86, 324, 86, 324, 30, 268, 694, 456, 72, 310, 792, 554, 30, 268, 156, 394, 456, 694, 380, 142, 380, 142, 414, 652, 414, 652, 30, 268, 792, 554, 380, 142, 554, 792, 792, 554, 240, 478, 86, 324, 324, 86, 554, 792, 268, 30, 324, 86, 694, 456, 554, 792, 414, 652, 792, 554, 156, 394, 792, 554, 240, 478, 414, 652, 414, 652, 414, 652, 30, 268, 414, 652, 652, 414, 30, 268, 268, 30, 394, 156, 268, 30, 394, 156, 240, 478, 240, 478, 554, 792, 30, 268, 86, 324, 380, 142, 142, 380, 240, 478, 414, 652, 792, 554, 792, 554, 30, 268, 792, 554, 156, 394, 86, 324, 268, 30, 156, 394, 554, 792, 142, 380, 156, 394, 456, 694, 792, 554, 72, 310, 86, 324, 72, 310, 394, 156, 554, 792, 792, 554, 792, 554, 310, 72, 652, 414, 694, 456, 268, 30, 456, 694, 30, 268, 156, 394, 478, 240, 414, 652, 72, 310, 268, 30}
Number of labels used: 18
Total time: 8.23s
Memory used: 147.34 MB
[runlim] end:			Thu Dec 11 23:32:30 2025
[runlim] status:		ok
[runlim] result:		0
[runlim] children:		0
[runlim] real:			9.17 seconds
[runlim] time:			10.74 seconds
[runlim] space:			184.6 MB
[runlim] samples:		83
